p edge 228 732
e 1 2
e 1 4
e 1 13
e 1 23
e 1 34
e 1 38
e 1 44
e 1 52
e 1 83
e 1 86
e 1 137
e 1 172
e 1 173
e 1 176
e 1 183
e 2 10
e 2 23
e 2 38
e 2 40
e 2 41
e 2 56
e 2 63
e 2 66
e 2 72
e 2 78
e 2 112
e 2 115
e 2 132
e 2 145
e 2 146
e 2 151
e 2 192
e 2 196
e 3 7
e 3 9
e 3 10
e 3 14
e 3 51
e 3 64
e 3 67
e 3 84
e 3 88
e 3 91
e 3 94
e 3 98
e 3 99
e 3 102
e 3 131
e 3 199
e 4 39
e 4 63
e 4 65
e 4 66
e 4 79
e 4 111
e 4 112
e 4 115
e 4 128
e 4 151
e 4 189
e 4 193
e 4 194
e 4 203
e 4 225
e 5 19
e 5 20
e 5 22
e 5 41
e 5 47
e 5 49
e 5 60
e 5 61
e 5 74
e 5 81
e 5 82
e 5 84
e 5 92
e 5 126
e 5 134
e 5 138
e 5 167
e 5 181
e 5 189
e 5 191
e 5 208
e 6 13
e 6 17
e 6 23
e 6 32
e 6 36
e 6 47
e 6 51
e 6 60
e 6 98
e 6 106
e 6 117
e 6 213
e 7 13
e 7 19
e 7 38
e 7 48
e 7 51
e 7 94
e 7 98
e 7 105
e 7 153
e 7 159
e 8 12
e 8 24
e 8 32
e 8 33
e 8 37
e 8 68
e 8 101
e 8 125
e 8 133
e 8 156
e 8 217
e 9 29
e 9 34
e 9 35
e 9 46
e 9 48
e 9 51
e 9 57
e 9 58
e 9 73
e 9 89
e 9 105
e 9 153
e 9 206
e 10 11
e 10 41
e 10 54
e 10 56
e 10 61
e 10 63
e 10 72
e 10 91
e 10 103
e 10 192
e 11 16
e 11 17
e 11 28
e 11 50
e 11 61
e 11 63
e 11 74
e 11 77
e 11 80
e 11 103
e 11 119
e 11 126
e 11 201
e 11 214
e 12 16
e 12 22
e 12 24
e 12 41
e 12 53
e 12 87
e 12 101
e 12 112
e 12 116
e 12 121
e 12 122
e 12 125
e 12 188
e 13 23
e 13 83
e 13 95
e 13 98
e 13 105
e 13 106
e 13 117
e 13 176
e 14 99
e 14 132
e 14 147
e 14 157
e 14 158
e 14 162
e 14 172
e 14 173
e 14 181
e 14 195
e 14 197
e 14 198
e 14 202
e 15 18
e 15 22
e 15 36
e 15 40
e 15 60
e 15 61
e 15 74
e 15 81
e 15 84
e 15 167
e 16 21
e 16 25
e 16 28
e 16 32
e 16 50
e 16 53
e 16 97
e 16 126
e 16 209
e 17 33
e 17 68
e 17 69
e 17 147
e 17 190
e 17 201
e 18 22
e 18 25
e 18 31
e 18 37
e 18 59
e 18 61
e 18 69
e 18 80
e 18 97
e 19 26
e 19 38
e 19 55
e 19 58
e 19 70
e 19 83
e 19 91
e 19 92
e 19 114
e 19 149
e 19 180
e 19 181
e 19 223
e 20 47
e 20 49
e 20 54
e 20 56
e 20 93
e 20 99
e 20 119
e 20 121
e 20 129
e 20 130
e 20 208
e 20 218
e 21 24
e 21 25
e 21 32
e 21 45
e 21 123
e 21 126
e 21 140
e 21 209
e 22 41
e 22 47
e 22 60
e 22 61
e 22 81
e 22 82
e 22 133
e 22 188
e 22 226
e 23 28
e 23 30
e 23 32
e 23 36
e 23 38
e 23 45
e 23 49
e 23 66
e 23 69
e 23 83
e 23 151
e 23 176
e 24 25
e 24 33
e 24 37
e 24 45
e 24 68
e 24 87
e 24 112
e 24 125
e 24 156
e 24 217
e 25 31
e 25 37
e 25 45
e 25 59
e 25 80
e 25 97
e 25 101
e 25 126
e 26 48
e 26 74
e 26 86
e 26 99
e 26 149
e 26 223
e 27 43
e 27 54
e 27 61
e 27 63
e 27 77
e 27 79
e 27 85
e 27 103
e 27 135
e 28 30
e 28 36
e 28 45
e 28 49
e 28 50
e 28 52
e 28 75
e 28 94
e 28 116
e 28 153
e 29 34
e 29 35
e 29 46
e 29 70
e 29 73
e 29 76
e 29 107
e 29 139
e 29 154
e 30 33
e 30 36
e 30 44
e 30 45
e 30 51
e 30 52
e 30 94
e 30 153
e 31 37
e 31 59
e 31 67
e 31 69
e 31 80
e 31 84
e 31 97
e 31 101
e 32 36
e 32 37
e 32 69
e 33 37
e 33 68
e 33 219
e 34 35
e 34 38
e 34 46
e 34 73
e 35 46
e 35 73
e 35 110
e 35 212
e 36 45
e 36 59
e 36 60
e 36 74
e 36 81
e 36 133
e 36 167
e 37 59
e 37 68
e 37 80
e 37 97
e 38 66
e 38 71
e 38 151
e 39 66
e 39 71
e 39 107
e 39 113
e 39 124
e 39 139
e 40 60
e 40 63
e 40 85
e 40 112
e 40 115
e 40 130
e 40 171
e 40 185
e 41 42
e 41 56
e 41 61
e 41 72
e 41 81
e 41 123
e 41 136
e 41 160
e 41 165
e 41 188
e 41 192
e 42 104
e 42 123
e 42 136
e 42 160
e 42 165
e 42 166
e 42 188
e 43 72
e 43 77
e 43 79
e 43 117
e 43 135
e 43 160
e 43 163
e 43 187
e 44 51
e 44 85
e 44 111
e 44 127
e 44 165
e 45 53
e 45 86
e 45 129
e 46 57
e 46 58
e 46 73
e 46 78
e 46 89
e 46 107
e 46 161
e 46 168
e 46 179
e 46 205
e 46 206
e 47 60
e 47 86
e 47 119
e 47 130
e 47 221
e 47 222
e 48 95
e 48 105
e 48 153
e 48 210
e 49 52
e 49 54
e 49 72
e 49 84
e 49 103
e 49 126
e 49 134
e 49 136
e 49 143
e 49 166
e 50 54
e 50 102
e 50 220
e 51 94
e 51 98
e 52 86
e 52 94
e 52 119
e 52 143
e 53 82
e 53 86
e 53 97
e 53 121
e 53 129
e 54 85
e 54 88
e 54 135
e 55 58
e 55 65
e 55 90
e 55 139
e 55 150
e 55 154
e 56 72
e 56 85
e 56 93
e 56 130
e 56 192
e 56 218
e 57 58
e 57 59
e 57 78
e 57 107
e 57 150
e 57 161
e 58 78
e 58 107
e 58 150
e 58 161
e 59 80
e 60 74
e 60 81
e 60 86
e 60 167
e 61 63
e 61 81
e 61 102
e 61 103
e 61 215
e 62 185
e 62 224
e 63 79
e 63 85
e 63 103
e 63 111
e 63 112
e 63 115
e 63 130
e 64 88
e 64 108
e 64 125
e 64 140
e 65 73
e 65 189
e 66 71
e 66 151
e 67 81
e 67 84
e 67 102
e 67 127
e 68 69
e 68 87
e 68 118
e 68 147
e 68 190
e 69 147
e 69 190
e 70 76
e 70 114
e 71 96
e 71 107
e 71 139
e 71 152
e 71 207
e 72 87
e 72 103
e 72 136
e 72 163
e 72 166
e 72 187
e 72 192
e 73 206
e 73 212
e 74 80
e 74 81
e 74 99
e 74 119
e 74 126
e 74 167
e 75 116
e 75 143
e 75 199
e 76 110
e 77 160
e 78 90
e 78 107
e 78 161
e 78 182
e 79 111
e 79 117
e 80 111
e 80 119
e 80 126
e 81 127
e 81 167
e 82 189
e 82 191
e 82 226
e 83 91
e 83 109
e 83 176
e 83 180
e 84 102
e 84 126
e 84 134
e 85 111
e 85 130
e 85 135
e 85 165
e 86 129
e 87 112
e 87 118
e 87 125
e 88 97
e 88 169
e 88 193
e 88 194
e 89 168
e 89 179
e 89 205
e 90 150
e 90 179
e 91 180
e 92 181
e 93 118
e 93 130
e 93 138
e 93 145
e 93 146
e 93 218
e 94 98
e 94 159
e 95 106
e 95 109
e 95 162
e 95 180
e 96 149
e 96 152
e 96 177
e 96 207
e 98 117
e 99 162
e 100 120
e 100 204
e 101 104
e 101 156
e 101 200
e 102 103
e 102 116
e 102 215
e 103 136
e 103 166
e 103 215
e 104 156
e 104 200
e 104 227
e 104 228
e 105 153
e 106 107
e 106 114
e 106 139
e 106 154
e 106 213
e 107 114
e 107 139
e 107 154
e 107 161
e 108 125
e 108 175
e 109 170
e 109 174
e 109 177
e 111 165
e 112 115
e 112 125
e 112 128
e 112 203
e 114 139
e 114 154
e 115 128
e 115 203
e 116 122
e 118 138
e 118 169
e 118 175
e 119 126
e 119 130
e 120 168
e 121 129
e 121 134
e 122 127
e 122 129
e 122 141
e 122 142
e 123 136
e 123 140
e 125 156
e 125 217
e 126 134
e 127 129
e 128 187
e 128 203
e 130 218
e 131 155
e 131 199
e 132 141
e 132 142
e 132 157
e 132 158
e 132 196
e 132 216
e 136 166
e 137 144
e 138 191
e 139 154
e 141 142
e 141 143
e 141 196
e 141 216
e 142 143
e 142 196
e 142 216
e 145 146
e 147 190
e 148 152
e 148 211
e 149 223
e 151 225
e 152 207
e 155 183
e 156 200
e 156 217
e 157 158
e 160 165
e 162 180
e 163 164
e 163 187
e 168 179
e 168 205
e 169 175
e 169 193
e 169 194
e 170 174
e 171 185
e 172 173
e 172 181
e 172 202
e 173 181
e 173 202
e 174 184
e 178 186
e 179 205
e 189 191
e 193 194
e 195 197
e 195 198
e 196 216
e 197 198
e 221 222
e 227 228
